NAME: ./prFile/tspFile/tsp_file63.tsp
COMMENT: TSP file generated by Python
TYPE: TSP
DIMENSION: 40
EDGE_WEIGHT_TYPE: EUC_2D
NODE_COORD_SECTION
1 13 64
2 65 71
3 58 25
4 96 23
5 93 38
6 59 26
7 63 44
8 81 8
9 3 29
10 49 87
11 73 27
12 62 41
13 3 13
14 54 71
15 77 83
16 94 86
17 100 59
18 87 26
19 35 10
20 31 1
21 25 67
22 10 52
23 8 74
24 31 10
25 70 7
26 17 31
27 37 90
28 53 42
29 13 17
30 12 49
31 73 55
32 74 84
33 36 65
34 99 16
35 80 8
36 56 17
37 41 2
38 39 68
39 25 7
40 94 56
EOF
